NAME 
OBJSENSE MAX
ROWS
 N  OBJ
 L  packing[0]
 L  packing[1]
 L  packing[2]
 L  packing[3]
 L  packing[4]
 L  packing[5]
 L  packing[6]
 L  packing[7]
 L  packing[8]
 L  packing[9]
 L  packing[10]
 L  packing[11]
 L  packing[12]
 L  packing[13]
 L  packing[14]
 L  packing[15]
 L  packing[16]
 L  packing[17]
 L  packing[18]
 L  packing[19]
 L  packing[20]
 L  packing[21]
 L  packing[22]
 L  packing[23]
 L  packing[24]
 L  packing[25]
 L  packing[26]
 L  packing[27]
 L  packing[28]
 L  packing[29]
 L  packing[30]
 L  packing[31]
 L  packing[32]
 L  packing[33]
 L  packing[34]
 L  packing[35]
 L  packing[36]
 L  packing[37]
 L  packing[38]
 L  packing[39]
 L  packing[40]
 L  packing[41]
 L  packing[42]
 L  packing[43]
 L  packing[44]
 L  packing[45]
 L  packing[46]
 L  packing[47]
 L  packing[48]
 L  packing[49]
 L  R50     
COLUMNS
    MARKER    'MARKER'                 'INTORG'
    x[1]      OBJ       197
    x[1]      packing[1]  86
    x[1]      packing[2]  96
    x[1]      packing[3]  21
    x[1]      packing[4]  65
    x[1]      packing[6]  180
    x[1]      packing[7]  94
    x[1]      packing[9]  152
    x[1]      packing[10]  108
    x[1]      packing[11]  151
    x[1]      packing[13]  65
    x[1]      packing[15]  10
    x[1]      packing[17]  158
    x[1]      packing[19]  19
    x[1]      packing[20]  193
    x[1]      packing[21]  93
    x[1]      packing[22]  103
    x[1]      packing[23]  147
    x[1]      packing[24]  66
    x[1]      packing[25]  129
    x[1]      packing[26]  116
    x[1]      packing[27]  8
    x[1]      packing[28]  41
    x[1]      packing[29]  32
    x[1]      packing[30]  6
    x[1]      packing[31]  99
    x[1]      packing[32]  123
    x[1]      packing[35]  176
    x[1]      packing[36]  162
    x[1]      packing[40]  62
    x[1]      packing[41]  29
    x[1]      packing[43]  91
    x[1]      packing[44]  158
    x[1]      packing[46]  100
    x[1]      packing[47]  180
    x[1]      packing[49]  181
    x[2]      OBJ       26
    x[2]      packing[0]  122
    x[2]      packing[2]  128
    x[2]      packing[6]  124
    x[2]      packing[7]  36
    x[2]      packing[8]  102
    x[2]      packing[9]  6
    x[2]      packing[11]  130
    x[2]      packing[12]  115
    x[2]      packing[13]  99
    x[2]      packing[14]  59
    x[2]      packing[15]  164
    x[2]      packing[16]  50
    x[2]      packing[19]  92
    x[2]      packing[21]  45
    x[2]      packing[22]  136
    x[2]      packing[25]  18
    x[2]      packing[26]  26
    x[2]      packing[27]  110
    x[2]      packing[28]  32
    x[2]      packing[29]  181
    x[2]      packing[30]  134
    x[2]      packing[31]  101
    x[2]      packing[32]  98
    x[2]      packing[33]  130
    x[2]      packing[34]  96
    x[2]      packing[36]  74
    x[2]      packing[38]  48
    x[2]      packing[39]  175
    x[2]      packing[40]  159
    x[2]      packing[41]  124
    x[2]      packing[42]  177
    x[2]      packing[45]  189
    x[2]      packing[46]  19
    x[2]      packing[47]  80
    x[2]      packing[48]  74
    x[2]      packing[49]  105
    x[3]      OBJ       115
    x[3]      packing[1]  148
    x[3]      packing[2]  185
    x[3]      packing[3]  20
    x[3]      packing[4]  51
    x[3]      packing[5]  69
    x[3]      packing[6]  24
    x[3]      packing[7]  16
    x[3]      packing[9]  125
    x[3]      packing[10]  114
    x[3]      packing[11]  166
    x[3]      packing[12]  115
    x[3]      packing[13]  41
    x[3]      packing[14]  37
    x[3]      packing[15]  48
    x[3]      packing[16]  53
    x[3]      packing[17]  192
    x[3]      packing[18]  26
    x[3]      packing[19]  14
    x[3]      packing[20]  67
    x[3]      packing[22]  168
    x[3]      packing[23]  24
    x[3]      packing[24]  116
    x[3]      packing[25]  149
    x[3]      packing[26]  118
    x[3]      packing[27]  69
    x[3]      packing[28]  136
    x[3]      packing[29]  66
    x[3]      packing[30]  51
    x[3]      packing[31]  69
    x[3]      packing[33]  129
    x[3]      packing[34]  67
    x[3]      packing[35]  76
    x[3]      packing[36]  184
    x[3]      packing[37]  66
    x[3]      packing[39]  155
    x[3]      packing[41]  111
    x[3]      packing[42]  13
    x[3]      packing[43]  53
    x[3]      packing[44]  163
    x[3]      packing[45]  104
    x[3]      packing[46]  93
    x[3]      packing[47]  63
    x[3]      packing[48]  101
    x[3]      packing[49]  159
    x[4]      OBJ       128
    x[4]      packing[0]  2
    x[4]      packing[1]  56
    x[4]      packing[2]  25
    x[4]      packing[3]  186
    x[4]      packing[5]  159
    x[4]      packing[7]  20
    x[4]      packing[9]  140
    x[4]      packing[10]  172
    x[4]      packing[11]  99
    x[4]      packing[12]  193
    x[4]      packing[14]  164
    x[4]      packing[15]  141
    x[4]      packing[16]  77
    x[4]      packing[17]  123
    x[4]      packing[18]  18
    x[4]      packing[19]  57
    x[4]      packing[20]  54
    x[4]      packing[21]  70
    x[4]      packing[22]  113
    x[4]      packing[23]  96
    x[4]      packing[25]  183
    x[4]      packing[26]  24
    x[4]      packing[27]  164
    x[4]      packing[28]  23
    x[4]      packing[29]  87
    x[4]      packing[33]  140
    x[4]      packing[35]  82
    x[4]      packing[36]  152
    x[4]      packing[37]  156
    x[4]      packing[38]  41
    x[4]      packing[39]  32
    x[4]      packing[40]  194
    x[4]      packing[41]  124
    x[4]      packing[42]  77
    x[4]      packing[43]  151
    x[4]      packing[44]  159
    x[4]      packing[45]  162
    x[4]      packing[46]  135
    x[4]      packing[47]  11
    x[4]      packing[48]  124
    x[4]      packing[49]  35
    x[5]      OBJ       33
    x[5]      packing[0]  31
    x[5]      packing[1]  193
    x[5]      packing[3]  138
    x[5]      packing[7]  100
    x[5]      packing[8]  74
    x[5]      packing[10]  78
    x[5]      packing[11]  107
    x[5]      packing[14]  188
    x[5]      packing[15]  198
    x[5]      packing[17]  155
    x[5]      packing[18]  128
    x[5]      packing[19]  61
    x[5]      packing[20]  159
    x[5]      packing[21]  11
    x[5]      packing[23]  30
    x[5]      packing[24]  119
    x[5]      packing[25]  36
    x[5]      packing[26]  63
    x[5]      packing[27]  138
    x[5]      packing[28]  112
    x[5]      packing[29]  146
    x[5]      packing[30]  95
    x[5]      packing[31]  40
    x[5]      packing[32]  88
    x[5]      packing[34]  77
    x[5]      packing[36]  185
    x[5]      packing[37]  66
    x[5]      packing[39]  118
    x[5]      packing[40]  26
    x[5]      packing[41]  17
    x[5]      packing[42]  4
    x[5]      packing[44]  120
    x[5]      packing[45]  13
    x[5]      packing[47]  12
    x[5]      packing[49]  110
    x[6]      OBJ       102
    x[6]      packing[1]  167
    x[6]      packing[2]  159
    x[6]      packing[4]  90
    x[6]      packing[5]  115
    x[6]      packing[6]  14
    x[6]      packing[8]  51
    x[6]      packing[9]  51
    x[6]      packing[10]  68
    x[6]      packing[11]  66
    x[6]      packing[12]  24
    x[6]      packing[13]  120
    x[6]      packing[14]  129
    x[6]      packing[15]  153
    x[6]      packing[16]  87
    x[6]      packing[17]  140
    x[6]      packing[18]  189
    x[6]      packing[19]  64
    x[6]      packing[20]  72
    x[6]      packing[22]  66
    x[6]      packing[23]  17
    x[6]      packing[24]  28
    x[6]      packing[25]  22
    x[6]      packing[26]  38
    x[6]      packing[27]  124
    x[6]      packing[28]  122
    x[6]      packing[29]  48
    x[6]      packing[31]  81
    x[6]      packing[32]  24
    x[6]      packing[33]  80
    x[6]      packing[36]  186
    x[6]      packing[37]  71
    x[6]      packing[38]  124
    x[6]      packing[40]  151
    x[6]      packing[41]  153
    x[6]      packing[42]  29
    x[6]      packing[43]  166
    x[6]      packing[44]  124
    x[6]      packing[45]  52
    x[6]      packing[46]  111
    x[6]      packing[49]  72
    x[7]      OBJ       43
    x[7]      packing[0]  10
    x[7]      packing[5]  92
    x[7]      packing[6]  116
    x[7]      packing[7]  198
    x[7]      packing[8]  151
    x[7]      packing[9]  120
    x[7]      packing[10]  190
    x[7]      packing[11]  10
    x[7]      packing[13]  70
    x[7]      packing[14]  119
    x[7]      packing[17]  43
    x[7]      packing[18]  83
    x[7]      packing[19]  70
    x[7]      packing[20]  113
    x[7]      packing[21]  78
    x[7]      packing[22]  70
    x[7]      packing[23]  128
    x[7]      packing[24]  98
    x[7]      packing[25]  113
    x[7]      packing[26]  176
    x[7]      packing[31]  182
    x[7]      packing[33]  45
    x[7]      packing[34]  107
    x[7]      packing[35]  50
    x[7]      packing[36]  180
    x[7]      packing[37]  179
    x[7]      packing[38]  105
    x[7]      packing[39]  57
    x[7]      packing[40]  21
    x[7]      packing[41]  45
    x[7]      packing[42]  66
    x[7]      packing[43]  75
    x[7]      packing[44]  82
    x[7]      packing[45]  9
    x[7]      packing[46]  154
    x[7]      packing[47]  134
    x[7]      packing[48]  37
    x[7]      packing[49]  189
    x[8]      OBJ       129
    x[8]      packing[0]  102
    x[8]      packing[1]  141
    x[8]      packing[2]  166
    x[8]      packing[3]  54
    x[8]      packing[4]  155
    x[8]      packing[7]  146
    x[8]      packing[8]  120
    x[8]      packing[9]  96
    x[8]      packing[10]  19
    x[8]      packing[11]  17
    x[8]      packing[12]  112
    x[8]      packing[13]  118
    x[8]      packing[14]  109
    x[8]      packing[16]  117
    x[8]      packing[17]  130
    x[8]      packing[18]  39
    x[8]      packing[19]  127
    x[8]      packing[20]  148
    x[8]      packing[23]  30
    x[8]      packing[24]  83
    x[8]      packing[25]  47
    x[8]      packing[26]  68
    x[8]      packing[27]  166
    x[8]      packing[28]  106
    x[8]      packing[29]  31
    x[8]      packing[30]  190
    x[8]      packing[32]  134
    x[8]      packing[33]  110
    x[8]      packing[34]  85
    x[8]      packing[36]  2
    x[8]      packing[37]  135
    x[8]      packing[38]  88
    x[8]      packing[39]  51
    x[8]      packing[40]  91
    x[8]      packing[41]  54
    x[8]      packing[42]  64
    x[8]      packing[43]  19
    x[8]      packing[44]  43
    x[8]      packing[46]  80
    x[8]      packing[47]  43
    x[8]      packing[48]  15
    x[8]      packing[49]  43
    x[9]      OBJ       140
    x[9]      packing[0]  128
    x[9]      packing[1]  35
    x[9]      packing[2]  81
    x[9]      packing[3]  52
    x[9]      packing[4]  66
    x[9]      packing[5]  191
    x[9]      packing[7]  57
    x[9]      packing[9]  55
    x[9]      packing[10]  81
    x[9]      packing[11]  21
    x[9]      packing[12]  109
    x[9]      packing[13]  199
    x[9]      packing[14]  88
    x[9]      packing[15]  93
    x[9]      packing[17]  8
    x[9]      packing[18]  103
    x[9]      packing[19]  34
    x[9]      packing[20]  122
    x[9]      packing[22]  64
    x[9]      packing[23]  97
    x[9]      packing[24]  18
    x[9]      packing[26]  110
    x[9]      packing[28]  138
    x[9]      packing[29]  9
    x[9]      packing[32]  5
    x[9]      packing[33]  27
    x[9]      packing[34]  63
    x[9]      packing[35]  18
    x[9]      packing[36]  75
    x[9]      packing[37]  157
    x[9]      packing[38]  190
    x[9]      packing[42]  151
    x[9]      packing[43]  159
    x[9]      packing[44]  159
    x[9]      packing[45]  82
    x[9]      packing[46]  32
    x[9]      packing[48]  164
    x[9]      R50       1
    x[10]     OBJ       92
    x[10]     packing[0]  19
    x[10]     packing[1]  82
    x[10]     packing[2]  20
    x[10]     packing[5]  127
    x[10]     packing[6]  64
    x[10]     packing[7]  25
    x[10]     packing[8]  36
    x[10]     packing[9]  29
    x[10]     packing[10]  68
    x[10]     packing[11]  29
    x[10]     packing[12]  143
    x[10]     packing[13]  175
    x[10]     packing[14]  46
    x[10]     packing[15]  183
    x[10]     packing[16]  65
    x[10]     packing[18]  28
    x[10]     packing[20]  70
    x[10]     packing[21]  156
    x[10]     packing[22]  136
    x[10]     packing[23]  7
    x[10]     packing[24]  78
    x[10]     packing[25]  67
    x[10]     packing[28]  125
    x[10]     packing[29]  21
    x[10]     packing[30]  182
    x[10]     packing[32]  88
    x[10]     packing[33]  85
    x[10]     packing[34]  10
    x[10]     packing[35]  141
    x[10]     packing[38]  186
    x[10]     packing[39]  152
    x[10]     packing[41]  27
    x[10]     packing[42]  190
    x[10]     packing[46]  125
    x[10]     packing[47]  93
    x[10]     packing[48]  13
    x[10]     R50       1
    x[11]     OBJ       65
    x[11]     packing[0]  112
    x[11]     packing[2]  160
    x[11]     packing[3]  67
    x[11]     packing[4]  5
    x[11]     packing[5]  195
    x[11]     packing[6]  116
    x[11]     packing[8]  137
    x[11]     packing[9]  195
    x[11]     packing[11]  36
    x[11]     packing[12]  118
    x[11]     packing[13]  76
    x[11]     packing[14]  10
    x[11]     packing[15]  44
    x[11]     packing[16]  72
    x[11]     packing[17]  141
    x[11]     packing[18]  60
    x[11]     packing[20]  12
    x[11]     packing[21]  158
    x[11]     packing[23]  65
    x[11]     packing[24]  78
    x[11]     packing[25]  146
    x[11]     packing[26]  25
    x[11]     packing[27]  77
    x[11]     packing[28]  70
    x[11]     packing[29]  8
    x[11]     packing[30]  80
    x[11]     packing[31]  63
    x[11]     packing[33]  50
    x[11]     packing[34]  25
    x[11]     packing[35]  193
    x[11]     packing[36]  98
    x[11]     packing[37]  52
    x[11]     packing[39]  107
    x[11]     packing[40]  114
    x[11]     packing[42]  82
    x[11]     packing[44]  85
    x[11]     packing[45]  186
    x[11]     packing[46]  23
    x[11]     packing[47]  53
    x[11]     packing[48]  153
    x[12]     OBJ       196
    x[12]     packing[0]  114
    x[12]     packing[1]  106
    x[12]     packing[2]  46
    x[12]     packing[3]  21
    x[12]     packing[4]  31
    x[12]     packing[5]  100
    x[12]     packing[6]  126
    x[12]     packing[7]  143
    x[12]     packing[9]  31
    x[12]     packing[11]  69
    x[12]     packing[12]  172
    x[12]     packing[14]  38
    x[12]     packing[15]  134
    x[12]     packing[17]  22
    x[12]     packing[18]  3
    x[12]     packing[19]  139
    x[12]     packing[20]  195
    x[12]     packing[21]  164
    x[12]     packing[22]  144
    x[12]     packing[23]  192
    x[12]     packing[24]  103
    x[12]     packing[25]  135
    x[12]     packing[26]  57
    x[12]     packing[27]  178
    x[12]     packing[29]  41
    x[12]     packing[30]  72
    x[12]     packing[31]  38
    x[12]     packing[32]  43
    x[12]     packing[33]  188
    x[12]     packing[34]  115
    x[12]     packing[35]  86
    x[12]     packing[36]  31
    x[12]     packing[37]  73
    x[12]     packing[38]  126
    x[12]     packing[39]  132
    x[12]     packing[40]  19
    x[12]     packing[43]  74
    x[12]     packing[47]  170
    x[12]     packing[48]  37
    x[12]     packing[49]  185
    x[12]     R50       1
    x[13]     OBJ       189
    x[13]     packing[0]  82
    x[13]     packing[1]  183
    x[13]     packing[2]  167
    x[13]     packing[4]  27
    x[13]     packing[5]  105
    x[13]     packing[6]  61
    x[13]     packing[7]  152
    x[13]     packing[8]  190
    x[13]     packing[10]  126
    x[13]     packing[11]  63
    x[13]     packing[12]  165
    x[13]     packing[14]  164
    x[13]     packing[15]  21
    x[13]     packing[16]  149
    x[13]     packing[18]  111
    x[13]     packing[19]  166
    x[13]     packing[20]  51
    x[13]     packing[23]  37
    x[13]     packing[24]  182
    x[13]     packing[25]  40
    x[13]     packing[26]  18
    x[13]     packing[27]  172
    x[13]     packing[28]  181
    x[13]     packing[29]  55
    x[13]     packing[31]  100
    x[13]     packing[33]  119
    x[13]     packing[34]  157
    x[13]     packing[35]  174
    x[13]     packing[36]  36
    x[13]     packing[37]  192
    x[13]     packing[38]  50
    x[13]     packing[40]  10
    x[13]     packing[41]  29
    x[13]     packing[42]  58
    x[13]     packing[43]  72
    x[13]     packing[45]  15
    x[13]     packing[46]  179
    x[13]     packing[47]  181
    x[13]     packing[48]  137
    x[13]     R50       1
    x[14]     OBJ       63
    x[14]     packing[0]  151
    x[14]     packing[1]  104
    x[14]     packing[2]  7
    x[14]     packing[3]  63
    x[14]     packing[4]  22
    x[14]     packing[5]  113
    x[14]     packing[7]  113
    x[14]     packing[8]  160
    x[14]     packing[9]  106
    x[14]     packing[10]  145
    x[14]     packing[11]  44
    x[14]     packing[12]  162
    x[14]     packing[13]  194
    x[14]     packing[15]  103
    x[14]     packing[16]  17
    x[14]     packing[17]  103
    x[14]     packing[18]  103
    x[14]     packing[19]  146
    x[14]     packing[20]  185
    x[14]     packing[21]  1
    x[14]     packing[22]  170
    x[14]     packing[23]  1
    x[14]     packing[25]  91
    x[14]     packing[26]  94
    x[14]     packing[27]  21
    x[14]     packing[28]  46
    x[14]     packing[30]  138
    x[14]     packing[32]  129
    x[14]     packing[33]  92
    x[14]     packing[34]  143
    x[14]     packing[35]  21
    x[14]     packing[36]  47
    x[14]     packing[37]  10
    x[14]     packing[38]  119
    x[14]     packing[39]  166
    x[14]     packing[40]  154
    x[14]     packing[41]  30
    x[14]     packing[43]  108
    x[14]     packing[44]  149
    x[14]     packing[45]  143
    x[14]     packing[46]  97
    x[14]     packing[48]  87
    x[14]     packing[49]  47
    x[15]     OBJ       58
    x[15]     packing[1]  172
    x[15]     packing[2]  105
    x[15]     packing[3]  140
    x[15]     packing[4]  97
    x[15]     packing[6]  102
    x[15]     packing[9]  115
    x[15]     packing[10]  106
    x[15]     packing[11]  182
    x[15]     packing[12]  51
    x[15]     packing[13]  150
    x[15]     packing[14]  100
    x[15]     packing[15]  26
    x[15]     packing[17]  169
    x[15]     packing[18]  71
    x[15]     packing[19]  25
    x[15]     packing[20]  139
    x[15]     packing[22]  173
    x[15]     packing[23]  125
    x[15]     packing[26]  158
    x[15]     packing[27]  9
    x[15]     packing[29]  152
    x[15]     packing[30]  159
    x[15]     packing[32]  48
    x[15]     packing[33]  186
    x[15]     packing[34]  5
    x[15]     packing[35]  199
    x[15]     packing[36]  105
    x[15]     packing[37]  75
    x[15]     packing[39]  55
    x[15]     packing[40]  57
    x[15]     packing[41]  140
    x[15]     packing[43]  184
    x[15]     packing[44]  132
    x[15]     packing[45]  76
    x[15]     packing[46]  90
    x[15]     packing[47]  149
    x[15]     packing[48]  164
    x[15]     packing[49]  120
    x[16]     OBJ       41
    x[16]     packing[0]  35
    x[16]     packing[1]  11
    x[16]     packing[2]  174
    x[16]     packing[4]  66
    x[16]     packing[6]  103
    x[16]     packing[7]  80
    x[16]     packing[8]  88
    x[16]     packing[10]  76
    x[16]     packing[11]  55
    x[16]     packing[13]  148
    x[16]     packing[14]  60
    x[16]     packing[15]  4
    x[16]     packing[16]  41
    x[16]     packing[19]  25
    x[16]     packing[20]  21
    x[16]     packing[21]  140
    x[16]     packing[24]  179
    x[16]     packing[25]  111
    x[16]     packing[26]  46
    x[16]     packing[27]  127
    x[16]     packing[28]  162
    x[16]     packing[29]  136
    x[16]     packing[30]  121
    x[16]     packing[31]  38
    x[16]     packing[32]  198
    x[16]     packing[34]  131
    x[16]     packing[35]  6
    x[16]     packing[38]  8
    x[16]     packing[39]  4
    x[16]     packing[41]  168
    x[16]     packing[42]  175
    x[16]     packing[43]  63
    x[16]     packing[45]  189
    x[16]     packing[46]  120
    x[16]     packing[47]  71
    x[16]     packing[48]  34
    x[16]     packing[49]  153
    x[17]     OBJ       82
    x[17]     packing[0]  182
    x[17]     packing[1]  55
    x[17]     packing[2]  131
    x[17]     packing[5]  176
    x[17]     packing[6]  141
    x[17]     packing[7]  3
    x[17]     packing[8]  176
    x[17]     packing[9]  4
    x[17]     packing[11]  23
    x[17]     packing[13]  100
    x[17]     packing[14]  12
    x[17]     packing[15]  122
    x[17]     packing[16]  112
    x[17]     packing[17]  195
    x[17]     packing[18]  131
    x[17]     packing[19]  57
    x[17]     packing[20]  101
    x[17]     packing[21]  67
    x[17]     packing[23]  51
    x[17]     packing[24]  12
    x[17]     packing[26]  19
    x[17]     packing[28]  58
    x[17]     packing[29]  176
    x[17]     packing[30]  21
    x[17]     packing[31]  46
    x[17]     packing[32]  32
    x[17]     packing[33]  58
    x[17]     packing[34]  48
    x[17]     packing[36]  105
    x[17]     packing[40]  158
    x[17]     packing[42]  160
    x[17]     packing[44]  128
    x[17]     packing[46]  136
    x[17]     packing[47]  64
    x[17]     packing[48]  26
    x[17]     packing[49]  36
    x[18]     OBJ       113
    x[18]     packing[0]  105
    x[18]     packing[1]  105
    x[18]     packing[2]  193
    x[18]     packing[3]  86
    x[18]     packing[4]  187
    x[18]     packing[5]  173
    x[18]     packing[6]  122
    x[18]     packing[7]  87
    x[18]     packing[8]  42
    x[18]     packing[10]  123
    x[18]     packing[12]  74
    x[18]     packing[13]  92
    x[18]     packing[14]  61
    x[18]     packing[15]  31
    x[18]     packing[16]  26
    x[18]     packing[19]  34
    x[18]     packing[20]  57
    x[18]     packing[24]  79
    x[18]     packing[27]  184
    x[18]     packing[28]  195
    x[18]     packing[29]  106
    x[18]     packing[30]  191
    x[18]     packing[31]  121
    x[18]     packing[32]  83
    x[18]     packing[34]  197
    x[18]     packing[35]  148
    x[18]     packing[37]  44
    x[18]     packing[39]  154
    x[18]     packing[40]  101
    x[18]     packing[41]  5
    x[18]     packing[43]  16
    x[18]     packing[44]  91
    x[18]     packing[45]  163
    x[18]     packing[47]  20
    x[18]     packing[49]  30
    x[19]     OBJ       182
    x[19]     packing[1]  119
    x[19]     packing[2]  194
    x[19]     packing[3]  23
    x[19]     packing[4]  167
    x[19]     packing[5]  31
    x[19]     packing[8]  43
    x[19]     packing[9]  70
    x[19]     packing[10]  117
    x[19]     packing[11]  41
    x[19]     packing[12]  96
    x[19]     packing[13]  11
    x[19]     packing[14]  186
    x[19]     packing[15]  34
    x[19]     packing[17]  129
    x[19]     packing[20]  66
    x[19]     packing[22]  70
    x[19]     packing[23]  192
    x[19]     packing[25]  189
    x[19]     packing[26]  1
    x[19]     packing[27]  159
    x[19]     packing[29]  170
    x[19]     packing[30]  155
    x[19]     packing[31]  175
    x[19]     packing[32]  176
    x[19]     packing[33]  116
    x[19]     packing[34]  102
    x[19]     packing[35]  100
    x[19]     packing[36]  63
    x[19]     packing[37]  101
    x[19]     packing[39]  12
    x[19]     packing[42]  48
    x[19]     packing[43]  161
    x[19]     packing[44]  111
    x[19]     packing[45]  55
    x[19]     packing[46]  57
    x[19]     packing[49]  139
    x[20]     OBJ       144
    x[20]     packing[0]  58
    x[20]     packing[1]  180
    x[20]     packing[2]  43
    x[20]     packing[3]  53
    x[20]     packing[4]  188
    x[20]     packing[5]  23
    x[20]     packing[6]  110
    x[20]     packing[7]  149
    x[20]     packing[8]  134
    x[20]     packing[9]  18
    x[20]     packing[10]  17
    x[20]     packing[11]  39
    x[20]     packing[12]  162
    x[20]     packing[13]  33
    x[20]     packing[15]  175
    x[20]     packing[16]  187
    x[20]     packing[20]  11
    x[20]     packing[21]  12
    x[20]     packing[22]  115
    x[20]     packing[24]  73
    x[20]     packing[25]  60
    x[20]     packing[26]  131
    x[20]     packing[27]  153
    x[20]     packing[28]  143
    x[20]     packing[29]  30
    x[20]     packing[30]  190
    x[20]     packing[31]  68
    x[20]     packing[33]  168
    x[20]     packing[34]  185
    x[20]     packing[35]  143
    x[20]     packing[36]  68
    x[20]     packing[37]  160
    x[20]     packing[41]  6
    x[20]     packing[43]  128
    x[20]     packing[44]  177
    x[20]     packing[45]  52
    x[20]     packing[46]  159
    x[20]     packing[47]  157
    x[20]     packing[48]  68
    x[20]     packing[49]  16
    MARKER    'MARKER'                 'INTEND'
RHS
    RHS1      packing[0]  627
    RHS1      packing[1]  972
    RHS1      packing[2]  1040
    RHS1      packing[3]  462
    RHS1      packing[4]  609
    RHS1      packing[5]  835
    RHS1      packing[6]  702
    RHS1      packing[7]  710
    RHS1      packing[8]  752
    RHS1      packing[9]  657
    RHS1      packing[10]  804
    RHS1      packing[11]  674
    RHS1      packing[12]  906
    RHS1      packing[13]  846
    RHS1      packing[14]  785
    RHS1      packing[15]  842
    RHS1      packing[16]  527
    RHS1      packing[17]  854
    RHS1      packing[18]  547
    RHS1      packing[19]  565
    RHS1      packing[20]  918
    RHS1      packing[21]  498
    RHS1      packing[22]  764
    RHS1      packing[23]  620
    RHS1      packing[24]  656
    RHS1      packing[25]  768
    RHS1      packing[26]  644
    RHS1      packing[27]  930
    RHS1      packing[28]  845
    RHS1      packing[29]  748
    RHS1      packing[30]  893
    RHS1      packing[31]  611
    RHS1      packing[32]  635
    RHS1      packing[33]  862
    RHS1      packing[34]  807
    RHS1      packing[35]  807
    RHS1      packing[36]  877
    RHS1      packing[37]  769
    RHS1      packing[38]  543
    RHS1      packing[39]  685
    RHS1      packing[40]  659
    RHS1      packing[41]  531
    RHS1      packing[42]  647
    RHS1      packing[43]  760
    RHS1      packing[44]  941
    RHS1      packing[45]  745
    RHS1      packing[46]  855
    RHS1      packing[47]  741
    RHS1      packing[48]  617
    RHS1      packing[49]  810
    RHS1      R50       3
BOUNDS
 BV BND1      x[1]    
 BV BND1      x[2]    
 BV BND1      x[3]    
 BV BND1      x[4]    
 BV BND1      x[5]    
 BV BND1      x[6]    
 BV BND1      x[7]    
 BV BND1      x[8]    
 BV BND1      x[9]    
 BV BND1      x[10]   
 BV BND1      x[11]   
 BV BND1      x[12]   
 BV BND1      x[13]   
 BV BND1      x[14]   
 BV BND1      x[15]   
 BV BND1      x[16]   
 BV BND1      x[17]   
 BV BND1      x[18]   
 BV BND1      x[19]   
 BV BND1      x[20]   
ENDATA
